g3 0 1 0	# problem heatexch_spec3
 260 250 1 0 50	# vars, constraints, objectives, ranges, eqns
 0 1	# nonlinear constraints, objectives
 0 0	# network constraints: nonlinear, linear
 0 170 0	# nonlinear vars in constraints, objectives, both
 0 0 0 1	# linear network variables; functions; arith, flags
 60 0 0 0 0	# discrete variables: binary, integer, nonlinear (b,c,o)
 870 230	# nonzeros in Jacobian, gradients
 4 4	# max name lengths: constraints, variables
 0 0 0 0 0	# common exprs: b,c,o,c1,o1
b
2 0
2 0
2 0
2 0
2 0
2 0
2 0
2 0
2 0
2 0
2 0
2 0
2 0
2 0
2 0
2 0
2 0
2 0
2 0
2 0
2 0
2 0
2 0
2 0
2 0
2 0
2 0
2 0
2 0
2 0
2 0
2 0
2 0
2 0
2 0
2 0
2 0
2 0
2 0
2 0
2 0
2 0
2 0
2 0
2 0
2 0
2 0
2 0
2 0
2 0
2 0
2 0
2 0
2 0
2 0
2 0
2 0
2 0
2 0
2 0
2 0
2 0
2 0
2 0
2 0
2 0
2 0
2 0
2 0
2 0
2 0
2 0
2 0
2 0
2 0
2 0
2 0
2 0
2 0
2 0
2 0
2 0
2 0
2 0
2 0
2 10
2 10
2 10
2 10
2 10
2 10
2 10
2 10
2 10
2 10
2 10
2 10
2 10
2 10
2 10
2 10
2 10
2 10
2 10
2 10
2 10
2 10
2 10
2 10
2 10
2 10
2 10
2 10
2 10
2 10
2 10
2 10
2 10
2 10
2 10
2 10
2 10
2 10
2 10
2 10
2 10
2 10
2 10
2 10
2 10
2 10
2 10
2 10
2 10
2 10
2 10
2 10
2 10
2 10
2 10
2 10
2 10
2 10
2 10
2 10
2 10
2 10
2 10
2 10
2 10
2 10
2 10
2 10
2 10
2 10
2 10
2 10
2 10
2 10
2 10
2 10
2 10
2 10
2 10
2 10
2 10
2 10
2 10
2 10
2 10
0 93.3 1.6e2
0 93.3 1.6e2
0 93.3 1.6e2
0 137.8 248.9
0 137.8 248.9
0 137.8 248.9
0 65.6 226.7
0 65.6 226.7
0 65.6 226.7
0 148.9 271.1
0 148.9 271.1
0 148.9 271.1
0 65.6 198.9
0 65.6 198.9
0 65.6 198.9
0 60 1.6e2
0 60 1.6e2
0 60 1.6e2
0 115.6 221.7
0 115.6 221.7
0 115.6 221.7
0 37.8 221.1
0 37.8 221.1
0 37.8 221.1
0 82.2 176.7
0 82.2 176.7
0 82.2 176.7
0 93.3 204.4
0 93.3 204.4
0 93.3 204.4
0 0 1
0 0 1
0 0 1
0 0 1
0 0 1
0 0 1
0 0 1
0 0 1
0 0 1
0 0 1
0 0 1
0 0 1
0 0 1
0 0 1
0 0 1
0 0 1
0 0 1
0 0 1
0 0 1
0 0 1
0 0 1
0 0 1
0 0 1
0 0 1
0 0 1
0 0 1
0 0 1
0 0 1
0 0 1
0 0 1
0 0 1
0 0 1
0 0 1
0 0 1
0 0 1
0 0 1
0 0 1
0 0 1
0 0 1
0 0 1
0 0 1
0 0 1
0 0 1
0 0 1
0 0 1
0 0 1
0 0 1
0 0 1
0 0 1
0 0 1
0 0 1
0 0 1
0 0 1
0 0 1
0 0 1
0 0 1
0 0 1
0 0 1
0 0 1
0 0 1
x165
0 586.96
1 586.96
3 586.96
4 586.96
6 586.96
7 586.96
9 586.96
10 586.96
12 586.96
13 586.96
15 7.6e2
16 7.6e2
18 647.21
19 647.21
21 1177.66
22 1177.66
24 1177.66
25 1177.66
27 1177.66
28 1177.66
30 7.6e2
31 7.6e2
33 647.21
34 647.21
36 1539.72
37 1539.72
39 1634.85
40 1634.85
42 1544.29
43 1544.29
45 7.6e2
46 7.6e2
48 647.21
49 647.21
51 1539.72
52 1539.72
54 1539.72
55 1539.72
57 1539.72
58 1539.72
60 7.6e2
61 7.6e2
63 647.21
64 647.21
66 1539.72
67 1539.72
69 1634.85
70 1634.85
72 1544.29
73 1544.29
85 100
86 100
87 100
88 44.4
89 44.4
90 44.4
91 122.2
92 122.2
93 122.2
94 77.8
95 77.8
96 77.8
97 66.7
98 66.7
99 66.7
100 188.9
101 188.9
102 188.9
103 133.3
104 133.3
105 133.3
106 211.1
107 211.1
108 211.1
109 166.7
110 166.7
111 166.7
112 155.6
113 155.6
114 155.6
115 166.7
116 166.7
117 166.7
118 111.1
119 111.1
120 111.1
121 188.9
122 188.9
123 188.9
124 144.5
125 144.5
126 144.5
127 133.4
128 133.4
129 133.4
130 211.1
131 211.1
132 211.1
133 155.5
134 155.5
135 155.5
136 233.3
137 233.3
138 233.3
139 188.9
140 188.9
141 188.9
142 177.8
143 177.8
144 177.8
145 138.9
146 138.9
147 138.9
148 83.3
149 83.3
150 83.3
151 161.1
152 161.1
153 161.1
154 116.7
155 116.7
156 116.7
157 105.6
158 105.6
159 105.6
160 1.2e2
161 208.9
162 186.7
163 231.1
164 158.9
165 1.8e2
166 124.4
167 202.2
168 157.8
169 146.7
170 1.6e2
171 1.6e2
172 1.6e2
173 248.9
174 248.9
175 248.9
176 226.7
177 226.7
178 226.7
179 271.1
180 271.1
181 271.1
182 198.9
183 198.9
184 198.9
185 60
186 60
187 60
188 115.6
189 115.6
190 115.6
191 37.8
192 37.8
193 37.8
194 82.2
195 82.2
196 82.2
197 93.3
198 93.3
199 93.3
r
4 0
4 0
4 0
4 0
4 0
4 0
4 0
4 0
4 0
4 0
4 0
4 0
4 0
4 0
4 0
4 0
4 0
4 0
4 0
4 0
4 821.04
4 1460.68
4 970.88
4 1876.14
4 1161.12
4 -586.96
4 -1177.66
4 -2384.28
4 -1539.72
4 -2359.41
4 -1216
4 -1352.37
4 -1857.24
4 -3056.91
4 -2841.16
4 -7.6e2
4 -647.21
4 -1539.72
4 -1634.85
4 -1544.29
2 0
2 0
2 0
2 0
2 0
2 0
2 0
2 0
2 0
2 0
2 0
2 0
2 0
2 0
2 0
2 0
2 0
2 0
2 0
2 0
2 93.3
2 137.8
2 65.6
2 148.9
2 65.6
2 -1.6e2
2 -221.7
2 -221.1
2 -176.7
2 -204.4
4 -1.6e2
4 -248.9
4 -226.7
4 -271.1
4 -198.9
4 -60
4 -115.6
4 -37.8
4 -82.2
4 -93.3
1 0
1 0
1 0
1 0
1 0
1 0
1 0
1 0
1 0
1 0
1 0
1 0
1 0
1 0
1 0
1 0
1 0
1 0
1 0
1 0
1 0
1 0
1 0
1 0
1 0
1 0
1 0
1 0
1 0
1 0
1 0
1 0
1 0
1 0
1 0
1 0
1 0
1 0
1 0
1 0
1 0
1 0
1 0
1 0
1 0
1 0
1 0
1 0
1 0
1 0
1 0
1 0
1 0
1 0
1 0
1 0
1 0
1 0
1 0
1 0
1 66.7
1 66.7
1 128.4
1 128.4
1 127.8
1 127.8
1 83.4
1 83.4
1 111.1
1 111.1
1 22.2
1 22.2
1 83.9
1 83.9
1 83.3
1 83.3
1 38.9
1 38.9
1 66.6
1 66.6
1 94.4
1 94.4
1 156.1
1 156.1
1 155.5
1 155.5
1 111.1
1 111.1
1 138.8
1 138.8
1 11.1
1 11.1
1 72.8
1 72.8
1 72.2
1 72.2
1 27.8
1 27.8
1 55.5
1 55.5
1 94.4
1 94.4
1 156.1
1 156.1
1 155.5
1 155.5
1 111.1
1 111.1
1 138.8
1 138.8
1 66.7
1 66.7
1 128.4
1 128.4
1 127.8
1 127.8
1 83.4
1 83.4
1 111.1
1 111.1
1 22.2
1 22.2
1 83.9
1 83.9
1 83.3
1 83.3
1 38.9
1 38.9
1 66.6
1 66.6
1 94.4
1 94.4
1 156.1
1 156.1
1 155.5
1 155.5
1 111.1
1 111.1
1 138.8
1 138.8
1 11.1
1 11.1
1 72.8
1 72.8
1 72.2
1 72.2
1 27.8
1 27.8
1 55.5
1 55.5
1 94.4
1 94.4
1 156.1
1 156.1
1 155.5
1 155.5
1 111.1
1 111.1
1 138.8
1 138.8
1 -40
1 -40
1 -40
1 -40
1 -40
1 2.4e2
1 2.4e2
1 2.4e2
1 2.4e2
1 2.4e2
C0
n0
C1
n0
C2
n0
C3
n0
C4
n0
C5
n0
C6
n0
C7
n0
C8
n0
C9
n0
C10
n0
C11
n0
C12
n0
C13
n0
C14
n0
C15
n0
C16
n0
C17
n0
C18
n0
C19
n0
C20
n0
C21
n0
C22
n0
C23
n0
C24
n0
C25
n0
C26
n0
C27
n0
C28
n0
C29
n0
C30
n0
C31
n0
C32
n0
C33
n0
C34
n0
C35
n0
C36
n0
C37
n0
C38
n0
C39
n0
C40
n0
C41
n0
C42
n0
C43
n0
C44
n0
C45
n0
C46
n0
C47
n0
C48
n0
C49
n0
C50
n0
C51
n0
C52
n0
C53
n0
C54
n0
C55
n0
C56
n0
C57
n0
C58
n0
C59
n0
C60
n0
C61
n0
C62
n0
C63
n0
C64
n0
C65
n0
C66
n0
C67
n0
C68
n0
C69
n0
C70
n0
C71
n0
C72
n0
C73
n0
C74
n0
C75
n0
C76
n0
C77
n0
C78
n0
C79
n0
C80
n0
C81
n0
C82
n0
C83
n0
C84
n0
C85
n0
C86
n0
C87
n0
C88
n0
C89
n0
C90
n0
C91
n0
C92
n0
C93
n0
C94
n0
C95
n0
C96
n0
C97
n0
C98
n0
C99
n0
C100
n0
C101
n0
C102
n0
C103
n0
C104
n0
C105
n0
C106
n0
C107
n0
C108
n0
C109
n0
C110
n0
C111
n0
C112
n0
C113
n0
C114
n0
C115
n0
C116
n0
C117
n0
C118
n0
C119
n0
C120
n0
C121
n0
C122
n0
C123
n0
C124
n0
C125
n0
C126
n0
C127
n0
C128
n0
C129
n0
C130
n0
C131
n0
C132
n0
C133
n0
C134
n0
C135
n0
C136
n0
C137
n0
C138
n0
C139
n0
C140
n0
C141
n0
C142
n0
C143
n0
C144
n0
C145
n0
C146
n0
C147
n0
C148
n0
C149
n0
C150
n0
C151
n0
C152
n0
C153
n0
C154
n0
C155
n0
C156
n0
C157
n0
C158
n0
C159
n0
C160
n0
C161
n0
C162
n0
C163
n0
C164
n0
C165
n0
C166
n0
C167
n0
C168
n0
C169
n0
C170
n0
C171
n0
C172
n0
C173
n0
C174
n0
C175
n0
C176
n0
C177
n0
C178
n0
C179
n0
C180
n0
C181
n0
C182
n0
C183
n0
C184
n0
C185
n0
C186
n0
C187
n0
C188
n0
C189
n0
C190
n0
C191
n0
C192
n0
C193
n0
C194
n0
C195
n0
C196
n0
C197
n0
C198
n0
C199
n0
C200
n0
C201
n0
C202
n0
C203
n0
C204
n0
C205
n0
C206
n0
C207
n0
C208
n0
C209
n0
C210
n0
C211
n0
C212
n0
C213
n0
C214
n0
C215
n0
C216
n0
C217
n0
C218
n0
C219
n0
C220
n0
C221
n0
C222
n0
C223
n0
C224
n0
C225
n0
C226
n0
C227
n0
C228
n0
C229
n0
C230
n0
C231
n0
C232
n0
C233
n0
C234
n0
C235
n0
C236
n0
C237
n0
C238
n0
C239
n0
C240
n0
C241
n0
C242
n0
C243
n0
C244
n0
C245
n0
C246
n0
C247
n0
C248
n0
C249
n0
O0 0
o54
13
o2
n146
o54
75
o5
o0
o3
o2
n1.17647058823529
v0
o0
o5
o0
o2
o2
o2
n.5
v85
v86
o0
v85
v86
n1e-6
n.33333
n1e-6
n1e-6
n.6
o5
o0
o3
o2
n1.17647058823529
v1
o0
o5
o0
o2
o2
o2
n.5
v86
v87
o0
v86
v87
n1e-6
n.33333
n1e-6
n1e-6
n.6
o5
o0
n1e-6
o2
n117.629878654828
v2
n.6
o5
o0
o3
o2
n1.17647058823529
v3
o0
o5
o0
o2
o2
o2
n.5
v88
v89
o0
v88
v89
n1e-6
n.33333
n1e-6
n1e-6
n.6
o5
o0
o3
o2
n1.17647058823529
v4
o0
o5
o0
o2
o2
o2
n.5
v89
v90
o0
v89
v90
n1e-6
n.33333
n1e-6
n1e-6
n.6
o5
o0
n1e-6
o2
n117.629878654828
v5
n.6
o5
o0
o3
o2
n1.17647058823529
v6
o0
o5
o0
o2
o2
o2
n.5
v91
v92
o0
v91
v92
n1e-6
n.33333
n1e-6
n1e-6
n.6
o5
o0
o3
o2
n1.17647058823529
v7
o0
o5
o0
o2
o2
o2
n.5
v92
v93
o0
v92
v93
n1e-6
n.33333
n1e-6
n1e-6
n.6
o5
o0
n1e-6
o2
n117.629878654828
v8
n.6
o5
o0
o3
o2
n1.17647058823529
v9
o0
o5
o0
o2
o2
o2
n.5
v94
v95
o0
v94
v95
n1e-6
n.33333
n1e-6
n1e-6
n.6
o5
o0
o3
o2
n1.17647058823529
v10
o0
o5
o0
o2
o2
o2
n.5
v95
v96
o0
v95
v96
n1e-6
n.33333
n1e-6
n1e-6
n.6
o5
o0
n1e-6
o2
n117.629878654828
v11
n.6
o5
o0
o3
o2
n1.17647058823529
v12
o0
o5
o0
o2
o2
o2
n.5
v97
v98
o0
v97
v98
n1e-6
n.33333
n1e-6
n1e-6
n.6
o5
o0
o3
o2
n1.17647058823529
v13
o0
o5
o0
o2
o2
o2
n.5
v98
v99
o0
v98
v99
n1e-6
n.33333
n1e-6
n1e-6
n.6
o5
o0
n1e-6
o2
n117.629878654828
v14
n.6
o5
o0
o3
o2
n1.17647058823529
v15
o0
o5
o0
o2
o2
o2
n.5
v100
v101
o0
v100
v101
n1e-6
n.33333
n1e-6
n1e-6
n.6
o5
o0
o3
o2
n1.17647058823529
v16
o0
o5
o0
o2
o2
o2
n.5
v101
v102
o0
v101
v102
n1e-6
n.33333
n1e-6
n1e-6
n.6
o5
o0
n1e-6
o2
n117.629878654828
v17
n.6
o5
o0
o3
o2
n1.17647058823529
v18
o0
o5
o0
o2
o2
o2
n.5
v103
v104
o0
v103
v104
n1e-6
n.33333
n1e-6
n1e-6
n.6
o5
o0
o3
o2
n1.17647058823529
v19
o0
o5
o0
o2
o2
o2
n.5
v104
v105
o0
v104
v105
n1e-6
n.33333
n1e-6
n1e-6
n.6
o5
o0
n1e-6
o2
n117.629878654828
v20
n.6
o5
o0
o3
o2
n1.17647058823529
v21
o0
o5
o0
o2
o2
o2
n.5
v106
v107
o0
v106
v107
n1e-6
n.33333
n1e-6
n1e-6
n.6
o5
o0
o3
o2
n1.17647058823529
v22
o0
o5
o0
o2
o2
o2
n.5
v107
v108
o0
v107
v108
n1e-6
n.33333
n1e-6
n1e-6
n.6
o5
o0
n1e-6
o2
n117.629878654828
v23
n.6
o5
o0
o3
o2
n1.17647058823529
v24
o0
o5
o0
o2
o2
o2
n.5
v109
v110
o0
v109
v110
n1e-6
n.33333
n1e-6
n1e-6
n.6
o5
o0
o3
o2
n1.17647058823529
v25
o0
o5
o0
o2
o2
o2
n.5
v110
v111
o0
v110
v111
n1e-6
n.33333
n1e-6
n1e-6
n.6
o5
o0
n1e-6
o2
n117.629878654828
v26
n.6
o5
o0
o3
o2
n1.17647058823529
v27
o0
o5
o0
o2
o2
o2
n.5
v112
v113
o0
v112
v113
n1e-6
n.33333
n1e-6
n1e-6
n.6
o5
o0
o3
o2
n1.17647058823529
v28
o0
o5
o0
o2
o2
o2
n.5
v113
v114
o0
v113
v114
n1e-6
n.33333
n1e-6
n1e-6
n.6
o5
o0
n1e-6
o2
n117.629878654828
v29
n.6
o5
o0
o3
o2
n1.17647058823529
v30
o0
o5
o0
o2
o2
o2
n.5
v115
v116
o0
v115
v116
n1e-6
n.33333
n1e-6
n1e-6
n.6
o5
o0
o3
o2
n1.17647058823529
v31
o0
o5
o0
o2
o2
o2
n.5
v116
v117
o0
v116
v117
n1e-6
n.33333
n1e-6
n1e-6
n.6
o5
o0
n1e-6
o2
n117.629878654828
v32
n.6
o5
o0
o3
o2
n1.17647058823529
v33
o0
o5
o0
o2
o2
o2
n.5
v118
v119
o0
v118
v119
n1e-6
n.33333
n1e-6
n1e-6
n.6
o5
o0
o3
o2
n1.17647058823529
v34
o0
o5
o0
o2
o2
o2
n.5
v119
v120
o0
v119
v120
n1e-6
n.33333
n1e-6
n1e-6
n.6
o5
o0
n1e-6
o2
n117.629878654828
v35
n.6
o5
o0
o3
o2
n1.17647058823529
v36
o0
o5
o0
o2
o2
o2
n.5
v121
v122
o0
v121
v122
n1e-6
n.33333
n1e-6
n1e-6
n.6
o5
o0
o3
o2
n1.17647058823529
v37
o0
o5
o0
o2
o2
o2
n.5
v122
v123
o0
v122
v123
n1e-6
n.33333
n1e-6
n1e-6
n.6
o5
o0
n1e-6
o2
n117.629878654828
v38
n.6
o5
o0
o3
o2
n1.17647058823529
v39
o0
o5
o0
o2
o2
o2
n.5
v124
v125
o0
v124
v125
n1e-6
n.33333
n1e-6
n1e-6
n.6
o5
o0
o3
o2
n1.17647058823529
v40
o0
o5
o0
o2
o2
o2
n.5
v125
v126
o0
v125
v126
n1e-6
n.33333
n1e-6
n1e-6
n.6
o5
o0
n1e-6
o2
n117.629878654828
v41
n.6
o5
o0
o3
o2
n1.17647058823529
v42
o0
o5
o0
o2
o2
o2
n.5
v127
v128
o0
v127
v128
n1e-6
n.33333
n1e-6
n1e-6
n.6
o5
o0
o3
o2
n1.17647058823529
v43
o0
o5
o0
o2
o2
o2
n.5
v128
v129
o0
v128
v129
n1e-6
n.33333
n1e-6
n1e-6
n.6
o5
o0
n1e-6
o2
n117.629878654828
v44
n.6
o5
o0
o3
o2
n1.17647058823529
v45
o0
o5
o0
o2
o2
o2
n.5
v130
v131
o0
v130
v131
n1e-6
n.33333
n1e-6
n1e-6
n.6
o5
o0
o3
o2
n1.17647058823529
v46
o0
o5
o0
o2
o2
o2
n.5
v131
v132
o0
v131
v132
n1e-6
n.33333
n1e-6
n1e-6
n.6
o5
o0
n1e-6
o2
n117.629878654828
v47
n.6
o5
o0
o3
o2
n1.17647058823529
v48
o0
o5
o0
o2
o2
o2
n.5
v133
v134
o0
v133
v134
n1e-6
n.33333
n1e-6
n1e-6
n.6
o5
o0
o3
o2
n1.17647058823529
v49
o0
o5
o0
o2
o2
o2
n.5
v134
v135
o0
v134
v135
n1e-6
n.33333
n1e-6
n1e-6
n.6
o5
o0
n1e-6
o2
n117.629878654828
v50
n.6
o5
o0
o3
o2
n1.17647058823529
v51
o0
o5
o0
o2
o2
o2
n.5
v136
v137
o0
v136
v137
n1e-6
n.33333
n1e-6
n1e-6
n.6
o5
o0
o3
o2
n1.17647058823529
v52
o0
o5
o0
o2
o2
o2
n.5
v137
v138
o0
v137
v138
n1e-6
n.33333
n1e-6
n1e-6
n.6
o5
o0
n1e-6
o2
n117.629878654828
v53
n.6
o5
o0
o3
o2
n1.17647058823529
v54
o0
o5
o0
o2
o2
o2
n.5
v139
v140
o0
v139
v140
n1e-6
n.33333
n1e-6
n1e-6
n.6
o5
o0
o3
o2
n1.17647058823529
v55
o0
o5
o0
o2
o2
o2
n.5
v140
v141
o0
v140
v141
n1e-6
n.33333
n1e-6
n1e-6
n.6
o5
o0
n1e-6
o2
n117.629878654828
v56
n.6
o5
o0
o3
o2
n1.17647058823529
v57
o0
o5
o0
o2
o2
o2
n.5
v142
v143
o0
v142
v143
n1e-6
n.33333
n1e-6
n1e-6
n.6
o5
o0
o3
o2
n1.17647058823529
v58
o0
o5
o0
o2
o2
o2
n.5
v143
v144
o0
v143
v144
n1e-6
n.33333
n1e-6
n1e-6
n.6
o5
o0
n1e-6
o2
n117.629878654828
v59
n.6
o5
o0
o3
o2
n1.17647058823529
v60
o0
o5
o0
o2
o2
o2
n.5
v145
v146
o0
v145
v146
n1e-6
n.33333
n1e-6
n1e-6
n.6
o5
o0
o3
o2
n1.17647058823529
v61
o0
o5
o0
o2
o2
o2
n.5
v146
v147
o0
v146
v147
n1e-6
n.33333
n1e-6
n1e-6
n.6
o5
o0
n1e-6
o2
n117.629878654828
v62
n.6
o5
o0
o3
o2
n1.17647058823529
v63
o0
o5
o0
o2
o2
o2
n.5
v148
v149
o0
v148
v149
n1e-6
n.33333
n1e-6
n1e-6
n.6
o5
o0
o3
o2
n1.17647058823529
v64
o0
o5
o0
o2
o2
o2
n.5
v149
v150
o0
v149
v150
n1e-6
n.33333
n1e-6
n1e-6
n.6
o5
o0
n1e-6
o2
n117.629878654828
v65
n.6
o5
o0
o3
o2
n1.17647058823529
v66
o0
o5
o0
o2
o2
o2
n.5
v151
v152
o0
v151
v152
n1e-6
n.33333
n1e-6
n1e-6
n.6
o5
o0
o3
o2
n1.17647058823529
v67
o0
o5
o0
o2
o2
o2
n.5
v152
v153
o0
v152
v153
n1e-6
n.33333
n1e-6
n1e-6
n.6
o5
o0
n1e-6
o2
n117.629878654828
v68
n.6
o5
o0
o3
o2
n1.17647058823529
v69
o0
o5
o0
o2
o2
o2
n.5
v154
v155
o0
v154
v155
n1e-6
n.33333
n1e-6
n1e-6
n.6
o5
o0
o3
o2
n1.17647058823529
v70
o0
o5
o0
o2
o2
o2
n.5
v155
v156
o0
v155
v156
n1e-6
n.33333
n1e-6
n1e-6
n.6
o5
o0
n1e-6
o2
n117.629878654828
v71
n.6
o5
o0
o3
o2
n1.17647058823529
v72
o0
o5
o0
o2
o2
o2
n.5
v157
v158
o0
v157
v158
n1e-6
n.33333
n1e-6
n1e-6
n.6
o5
o0
o3
o2
n1.17647058823529
v73
o0
o5
o0
o2
o2
o2
n.5
v158
v159
o0
v158
v159
n1e-6
n.33333
n1e-6
n1e-6
n.6
o5
o0
n1e-6
o2
n117.629878654828
v74
n.6
o2
n146
o5
o54
6
o3
o2
n.882352941176471
v80
o5
o0
o2
o2
n80
v165
o0
n40
o2
n.5
v165
n1e-6
n.33333
o3
o2
n.882352941176471
v81
o5
o0
o2
o2
n18.3
v166
o0
n9.15000000000001
o2
n.5
v166
n1e-6
n.33333
o3
o2
n.882352941176471
v82
o5
o0
o2
o2
n18.9
v167
o0
n9.45
o2
n.5
v167
n1e-6
n.33333
o3
o2
n.882352941176471
v83
o5
o0
o2
o2
n63.3
v168
o0
n31.65
o2
n.5
v168
n1e-6
n.33333
o3
o2
n.882352941176471
v84
o5
o0
o2
o2
n35.6
v169
o0
n17.8
o2
n.5
v169
n1e-6
n.33333
n5e-6
n.6
o2
n200
v80
o2
n200
v81
o2
n200
v82
o2
n200
v83
o2
n200
v84
o2
n146
o54
5
o5
o0
o3
o2
n1.17647058823529
v75
o5
o0
o2
o2
n34.15
v160
o0
n68.3
v160
n1e-6
n.33333
n1e-6
n.6
o5
o0
o3
o2
n1.17647058823529
v76
o5
o0
o2
o2
n56.4
v161
o0
n112.8
v161
n1e-6
n.33333
n1e-6
n.6
o5
o0
o3
o2
n1.17647058823529
v77
o5
o0
o2
o2
n20.3
v162
o0
n40.6
v162
n1e-6
n.33333
n1e-6
n.6
o5
o0
o3
o2
n1.17647058823529
v78
o5
o0
o2
o2
n61.95
v163
o0
n123.9
v163
n1e-6
n.33333
n1e-6
n.6
o5
o0
o3
o2
n1.17647058823529
v79
o5
o0
o2
o2
n20.3
v164
o0
n40.6
v164
n1e-6
n.33333
n1e-6
n.6
o2
n10
v75
o2
n10
v76
o2
n10
v77
o2
n10
v78
o2
n10
v79
k259
5
10
10
15
20
20
25
30
30
35
40
40
45
50
50
55
60
60
65
70
70
75
80
80
85
90
90
95
100
100
105
110
110
115
120
120
125
130
130
135
140
140
145
150
150
155
160
160
165
170
170
175
180
180
185
190
190
195
200
200
205
210
210
215
220
220
225
230
230
235
240
240
245
250
250
253
256
259
262
265
268
271
274
277
280
281
283
284
285
287
288
289
291
292
293
295
296
297
299
300
301
303
304
305
307
308
309
311
312
313
315
316
317
319
320
321
323
324
325
327
328
329
331
332
333
335
336
337
339
340
341
343
344
345
347
348
349
351
352
353
355
356
357
359
360
361
363
364
365
367
368
369
371
372
373
375
376
377
379
380
381
382
383
384
385
386
387
388
389
390
398
412
422
430
444
454
462
476
486
494
508
518
526
540
550
560
574
582
592
606
614
624
638
646
656
670
678
688
702
710
713
716
719
722
725
728
731
734
737
740
743
746
749
752
755
758
761
764
767
770
773
776
779
782
785
788
791
794
797
800
803
806
809
812
815
818
821
824
827
830
833
836
839
842
845
848
851
854
857
860
861
862
863
864
865
866
867
868
869
J0 7
0 -1
3 -1
6 -1
9 -1
12 -1
170 8.8
171 -8.8
J1 7
1 -1
4 -1
7 -1
10 -1
13 -1
171 8.8
172 -8.8
J2 7
15 -1
18 -1
21 -1
24 -1
27 -1
173 10.6
174 -10.6
J3 7
16 -1
19 -1
22 -1
25 -1
28 -1
174 10.6
175 -10.6
J4 7
30 -1
33 -1
36 -1
39 -1
42 -1
176 14.8
177 -14.8
J5 7
31 -1
34 -1
37 -1
40 -1
43 -1
177 14.8
178 -14.8
J6 7
45 -1
48 -1
51 -1
54 -1
57 -1
179 12.6
180 -12.6
J7 7
46 -1
49 -1
52 -1
55 -1
58 -1
180 12.6
181 -12.6
J8 7
60 -1
63 -1
66 -1
69 -1
72 -1
182 17.7
183 -17.7
J9 7
61 -1
64 -1
67 -1
70 -1
73 -1
183 17.7
184 -17.7
J10 7
0 -1
15 -1
30 -1
45 -1
60 -1
185 7.6
186 -7.6
J11 7
1 -1
16 -1
31 -1
46 -1
61 -1
186 7.6
187 -7.6
J12 7
3 -1
18 -1
33 -1
48 -1
63 -1
188 6.1
189 -6.1
J13 7
4 -1
19 -1
34 -1
49 -1
64 -1
189 6.1
190 -6.1
J14 7
6 -1
21 -1
36 -1
51 -1
66 -1
191 8.4
192 -8.4
J15 7
7 -1
22 -1
37 -1
52 -1
67 -1
192 8.4
193 -8.4
J16 7
9 -1
24 -1
39 -1
54 -1
69 -1
194 17.3
195 -17.3
J17 7
10 -1
25 -1
40 -1
55 -1
70 -1
195 17.3
196 -17.3
J18 7
12 -1
27 -1
42 -1
57 -1
72 -1
197 13.9
198 -13.9
J19 7
13 -1
28 -1
43 -1
58 -1
73 -1
198 13.9
199 -13.9
J20 2
75 -1
172 8.8
J21 2
76 -1
175 10.6
J22 2
77 -1
178 14.8
J23 2
78 -1
181 12.6
J24 2
79 -1
184 17.7
J25 11
0 -1
1 -1
3 -1
4 -1
6 -1
7 -1
9 -1
10 -1
12 -1
13 -1
75 -1
J26 11
15 -1
16 -1
18 -1
19 -1
21 -1
22 -1
24 -1
25 -1
27 -1
28 -1
76 -1
J27 11
30 -1
31 -1
33 -1
34 -1
36 -1
37 -1
39 -1
40 -1
42 -1
43 -1
77 -1
J28 11
45 -1
46 -1
48 -1
49 -1
51 -1
52 -1
54 -1
55 -1
57 -1
58 -1
78 -1
J29 11
60 -1
61 -1
63 -1
64 -1
66 -1
67 -1
69 -1
70 -1
72 -1
73 -1
79 -1
J30 2
80 -1
185 -7.6
J31 2
81 -1
188 -6.1
J32 2
82 -1
191 -8.4
J33 2
83 -1
194 -17.3
J34 2
84 -1
197 -13.9
J35 11
0 -1
1 -1
15 -1
16 -1
30 -1
31 -1
45 -1
46 -1
60 -1
61 -1
80 -1
J36 11
3 -1
4 -1
18 -1
19 -1
33 -1
34 -1
48 -1
49 -1
63 -1
64 -1
81 -1
J37 11
6 -1
7 -1
21 -1
22 -1
36 -1
37 -1
51 -1
52 -1
66 -1
67 -1
82 -1
J38 11
9 -1
10 -1
24 -1
25 -1
39 -1
40 -1
54 -1
55 -1
69 -1
70 -1
83 -1
J39 11
12 -1
13 -1
27 -1
28 -1
42 -1
43 -1
57 -1
58 -1
72 -1
73 -1
84 -1
J40 2
170 1
171 -1
J41 2
171 1
172 -1
J42 2
173 1
174 -1
J43 2
174 1
175 -1
J44 2
176 1
177 -1
J45 2
177 1
178 -1
J46 2
179 1
180 -1
J47 2
180 1
181 -1
J48 2
182 1
183 -1
J49 2
183 1
184 -1
J50 2
185 1
186 -1
J51 2
186 1
187 -1
J52 2
188 1
189 -1
J53 2
189 1
190 -1
J54 2
191 1
192 -1
J55 2
192 1
193 -1
J56 2
194 1
195 -1
J57 2
195 1
196 -1
J58 2
197 1
198 -1
J59 2
198 1
199 -1
J60 1
172 1
J61 1
175 1
J62 1
178 1
J63 1
181 1
J64 1
184 1
J65 1
185 -1
J66 1
188 -1
J67 1
191 -1
J68 1
194 -1
J69 1
197 -1
J70 1
170 -1
J71 1
173 -1
J72 1
176 -1
J73 1
179 -1
J74 1
182 -1
J75 1
187 -1
J76 1
190 -1
J77 1
193 -1
J78 1
196 -1
J79 1
199 -1
J80 2
0 1
200 -586.96
J81 2
1 1
201 -586.96
J82 2
3 1
202 -586.96
J83 2
4 1
203 -586.96
J84 2
6 1
204 -586.96
J85 2
7 1
205 -586.96
J86 2
9 1
206 -586.96
J87 2
10 1
207 -586.96
J88 2
12 1
208 -586.96
J89 2
13 1
209 -586.96
J90 2
15 1
210 -7.6e2
J91 2
16 1
211 -7.6e2
J92 2
18 1
212 -647.21
J93 2
19 1
213 -647.21
J94 2
21 1
214 -1177.66
J95 2
22 1
215 -1177.66
J96 2
24 1
216 -1177.66
J97 2
25 1
217 -1177.66
J98 2
27 1
218 -1177.66
J99 2
28 1
219 -1177.66
J100 2
30 1
220 -7.6e2
J101 2
31 1
221 -7.6e2
J102 2
33 1
222 -647.21
J103 2
34 1
223 -647.21
J104 2
36 1
224 -1539.72
J105 2
37 1
225 -1539.72
J106 2
39 1
226 -1634.85
J107 2
40 1
227 -1634.85
J108 2
42 1
228 -1544.29
J109 2
43 1
229 -1544.29
J110 2
45 1
230 -7.6e2
J111 2
46 1
231 -7.6e2
J112 2
48 1
232 -647.21
J113 2
49 1
233 -647.21
J114 2
51 1
234 -1539.72
J115 2
52 1
235 -1539.72
J116 2
54 1
236 -1539.72
J117 2
55 1
237 -1539.72
J118 2
57 1
238 -1539.72
J119 2
58 1
239 -1539.72
J120 2
60 1
240 -7.6e2
J121 2
61 1
241 -7.6e2
J122 2
63 1
242 -647.21
J123 2
64 1
243 -647.21
J124 2
66 1
244 -1539.72
J125 2
67 1
245 -1539.72
J126 2
69 1
246 -1634.85
J127 2
70 1
247 -1634.85
J128 2
72 1
248 -1544.29
J129 2
73 1
249 -1544.29
J130 2
80 1
255 -7.6e2
J131 2
81 1
256 -647.21
J132 2
82 1
257 -1539.72
J133 2
83 1
258 -1634.85
J134 2
84 1
259 -1544.29
J135 2
75 1
250 -586.96
J136 2
76 1
251 -1177.66
J137 2
77 1
252 -2384.28
J138 2
78 1
253 -1539.72
J139 2
79 1
254 -2359.41
J140 4
85 1
170 -1
185 1
200 66.7
J141 4
86 1
171 -1
186 1
201 66.7
J142 4
88 1
170 -1
188 1
202 128.4
J143 4
89 1
171 -1
189 1
203 128.4
J144 4
91 1
170 -1
191 1
204 127.8
J145 4
92 1
171 -1
192 1
205 127.8
J146 4
94 1
170 -1
194 1
206 83.4
J147 4
95 1
171 -1
195 1
207 83.4
J148 4
97 1
170 -1
197 1
208 111.1
J149 4
98 1
171 -1
198 1
209 111.1
J150 4
100 1
173 -1
185 1
210 22.2
J151 4
101 1
174 -1
186 1
211 22.2
J152 4
103 1
173 -1
188 1
212 83.9
J153 4
104 1
174 -1
189 1
213 83.9
J154 4
106 1
173 -1
191 1
214 83.3
J155 4
107 1
174 -1
192 1
215 83.3
J156 4
109 1
173 -1
194 1
216 38.9
J157 4
110 1
174 -1
195 1
217 38.9
J158 4
112 1
173 -1
197 1
218 66.6
J159 4
113 1
174 -1
198 1
219 66.6
J160 4
115 1
176 -1
185 1
220 94.4
J161 4
116 1
177 -1
186 1
221 94.4
J162 4
118 1
176 -1
188 1
222 156.1
J163 4
119 1
177 -1
189 1
223 156.1
J164 4
121 1
176 -1
191 1
224 155.5
J165 4
122 1
177 -1
192 1
225 155.5
J166 4
124 1
176 -1
194 1
226 111.1
J167 4
125 1
177 -1
195 1
227 111.1
J168 4
127 1
176 -1
197 1
228 138.8
J169 4
128 1
177 -1
198 1
229 138.8
J170 4
130 1
179 -1
185 1
230 11.1
J171 4
131 1
180 -1
186 1
231 11.1
J172 4
133 1
179 -1
188 1
232 72.8
J173 4
134 1
180 -1
189 1
233 72.8
J174 4
136 1
179 -1
191 1
234 72.2
J175 4
137 1
180 -1
192 1
235 72.2
J176 4
139 1
179 -1
194 1
236 27.8
J177 4
140 1
180 -1
195 1
237 27.8
J178 4
142 1
179 -1
197 1
238 55.5
J179 4
143 1
180 -1
198 1
239 55.5
J180 4
145 1
182 -1
185 1
240 94.4
J181 4
146 1
183 -1
186 1
241 94.4
J182 4
148 1
182 -1
188 1
242 156.1
J183 4
149 1
183 -1
189 1
243 156.1
J184 4
151 1
182 -1
191 1
244 155.5
J185 4
152 1
183 -1
192 1
245 155.5
J186 4
154 1
182 -1
194 1
246 111.1
J187 4
155 1
183 -1
195 1
247 111.1
J188 4
157 1
182 -1
197 1
248 138.8
J189 4
158 1
183 -1
198 1
249 138.8
J190 4
86 1
171 -1
186 1
200 66.7
J191 4
87 1
172 -1
187 1
201 66.7
J192 4
89 1
171 -1
189 1
202 128.4
J193 4
90 1
172 -1
190 1
203 128.4
J194 4
92 1
171 -1
192 1
204 127.8
J195 4
93 1
172 -1
193 1
205 127.8
J196 4
95 1
171 -1
195 1
206 83.4
J197 4
96 1
172 -1
196 1
207 83.4
J198 4
98 1
171 -1
198 1
208 111.1
J199 4
99 1
172 -1
199 1
209 111.1
J200 4
101 1
174 -1
186 1
210 22.2
J201 4
102 1
175 -1
187 1
211 22.2
J202 4
104 1
174 -1
189 1
212 83.9
J203 4
105 1
175 -1
190 1
213 83.9
J204 4
107 1
174 -1
192 1
214 83.3
J205 4
108 1
175 -1
193 1
215 83.3
J206 4
110 1
174 -1
195 1
216 38.9
J207 4
111 1
175 -1
196 1
217 38.9
J208 4
113 1
174 -1
198 1
218 66.6
J209 4
114 1
175 -1
199 1
219 66.6
J210 4
116 1
177 -1
186 1
220 94.4
J211 4
117 1
178 -1
187 1
221 94.4
J212 4
119 1
177 -1
189 1
222 156.1
J213 4
120 1
178 -1
190 1
223 156.1
J214 4
122 1
177 -1
192 1
224 155.5
J215 4
123 1
178 -1
193 1
225 155.5
J216 4
125 1
177 -1
195 1
226 111.1
J217 4
126 1
178 -1
196 1
227 111.1
J218 4
128 1
177 -1
198 1
228 138.8
J219 4
129 1
178 -1
199 1
229 138.8
J220 4
131 1
180 -1
186 1
230 11.1
J221 4
132 1
181 -1
187 1
231 11.1
J222 4
134 1
180 -1
189 1
232 72.8
J223 4
135 1
181 -1
190 1
233 72.8
J224 4
137 1
180 -1
192 1
234 72.2
J225 4
138 1
181 -1
193 1
235 72.2
J226 4
140 1
180 -1
195 1
236 27.8
J227 4
141 1
181 -1
196 1
237 27.8
J228 4
143 1
180 -1
198 1
238 55.5
J229 4
144 1
181 -1
199 1
239 55.5
J230 4
146 1
183 -1
186 1
240 94.4
J231 4
147 1
184 -1
187 1
241 94.4
J232 4
149 1
183 -1
189 1
242 156.1
J233 4
150 1
184 -1
190 1
243 156.1
J234 4
152 1
183 -1
192 1
244 155.5
J235 4
153 1
184 -1
193 1
245 155.5
J236 4
155 1
183 -1
195 1
246 111.1
J237 4
156 1
184 -1
196 1
247 111.1
J238 4
158 1
183 -1
198 1
248 138.8
J239 4
159 1
184 -1
199 1
249 138.8
J240 2
160 1
172 -1
J241 2
161 1
175 -1
J242 2
162 1
178 -1
J243 2
163 1
181 -1
J244 2
164 1
184 -1
J245 2
165 1
185 1
J246 2
166 1
188 1
J247 2
167 1
191 1
J248 2
168 1
194 1
J249 2
169 1
197 1
G0 230
0 0
1 0
2 0
3 0
4 0
5 0
6 0
7 0
8 0
9 0
10 0
11 0
12 0
13 0
14 0
15 0
16 0
17 0
18 0
19 0
20 0
21 0
22 0
23 0
24 0
25 0
26 0
27 0
28 0
29 0
30 0
31 0
32 0
33 0
34 0
35 0
36 0
37 0
38 0
39 0
40 0
41 0
42 0
43 0
44 0
45 0
46 0
47 0
48 0
49 0
50 0
51 0
52 0
53 0
54 0
55 0
56 0
57 0
58 0
59 0
60 0
61 0
62 0
63 0
64 0
65 0
66 0
67 0
68 0
69 0
70 0
71 0
72 0
73 0
74 0
75 0
76 0
77 0
78 0
79 0
80 0
81 0
82 0
83 0
84 0
85 0
86 0
87 0
88 0
89 0
90 0
91 0
92 0
93 0
94 0
95 0
96 0
97 0
98 0
99 0
100 0
101 0
102 0
103 0
104 0
105 0
106 0
107 0
108 0
109 0
110 0
111 0
112 0
113 0
114 0
115 0
116 0
117 0
118 0
119 0
120 0
121 0
122 0
123 0
124 0
125 0
126 0
127 0
128 0
129 0
130 0
131 0
132 0
133 0
134 0
135 0
136 0
137 0
138 0
139 0
140 0
141 0
142 0
143 0
144 0
145 0
146 0
147 0
148 0
149 0
150 0
151 0
152 0
153 0
154 0
155 0
156 0
157 0
158 0
159 0
160 0
161 0
162 0
163 0
164 0
165 0
166 0
167 0
168 0
169 0
200 4e3
201 4e3
202 4e3
203 4e3
204 4e3
205 4e3
206 4e3
207 4e3
208 4e3
209 4e3
210 4e3
211 4e3
212 4e3
213 4e3
214 4e3
215 4e3
216 4e3
217 4e3
218 4e3
219 4e3
220 4e3
221 4e3
222 4e3
223 4e3
224 4e3
225 4e3
226 4e3
227 4e3
228 4e3
229 4e3
230 4e3
231 4e3
232 4e3
233 4e3
234 4e3
235 4e3
236 4e3
237 4e3
238 4e3
239 4e3
240 4e3
241 4e3
242 4e3
243 4e3
244 4e3
245 4e3
246 4e3
247 4e3
248 4e3
249 4e3
250 4e3
251 4e3
252 4e3
253 4e3
254 4e3
255 4e3
256 4e3
257 4e3
258 4e3
259 4e3
